networks/zoo_54_152/zoo_54_152-lower.txt
Number of groups: 17
Flow 1: {2 1 0} {1 4 0} {4 7 0} {7 35 0} 
Flow 2: {2 26 0} {26 54 0} 
Flow 3: {3 7 0} {7 8 0} {8 5 0} {5 33 0} 
Flow 5: {5 6 0} {6 9 0} {9 37 0} 
Flow 6: {9 10 0} {10 17 0} {17 45 0} 
Flow 7: {3 20 0} {20 28 0} {28 19 0} {19 47 0} 
Flow 8: {27 15 0} {15 26 0} {26 25 0} {20 27 0} {25 24 0} {24 52 0} 
Flow 10: {7 3 0} {3 31 0} 
Flow 14: {10 38 0} 
Flow 15: {4 1 0} {1 2 0} {26 15 0} {15 43 0} 
Flow 16: {2 14 0} {14 13 0} {13 16 0} {16 17 0} Flow 20: {6 5 0} {5 8 0} {8 7 0} Flow 21: {7 4 0} {4 32 0} 
Flow 34: {6 34 0} 
Flow 35: {8 36 0} 
Flow 38: {13 12 0} {12 11 0} {11 39 0} 
Flow 41: {17 18 0} {18 46 0} 
Flow 43: {20 48 0} 
Flow 45: {25 53 0} 
Flow 49: {9 6 0} Flow 50: {17 16 0} {16 13 0} {13 14 0} {14 2 0} Flow 51: {10 9 0} Flow 59: {11 12 0} {12 13 0} Flow 61: {11 18 0} {18 17 0} {17 10 0} Flow 67: {15 27 0} {27 20 0} Flow 89: {20 3 0} Flow 106: {18 11 0} Flow 117: {23 19 0} {19 28 0} {28 20 0} {21 22 0} {22 23 0} Flow 120: {21 24 0} {24 25 0} {25 26 0} {26 2 0} Flow 134: {24 21 0} Flow 151: {19 23 0} {23 22 0} {22 21 0} Time taken running everything: 0 seconds
