networks/zoo_54_152/zoo_54_152-lower.sol
<?xml version = "1.0" encoding="UTF-8" standalone="yes"?>
<CPLEXSolution version="1.2">
 <header
   problemName="networks/zoo_54_152/zoo_54_152-lower.lp"
   solutionName="incumbent"
   solutionIndex="-1"
   objectiveValue="17"
   solutionTypeValue="3"
   solutionTypeString="primal"
   solutionStatusValue="101"
   solutionStatusString="integer optimal solution"
   solutionMethodString="mip"
   primalFeasible="1"
   dualFeasible="1"
   MIPNodes="0"
   MIPIterations="0"
   writeLevel="3"/>
 <quality
   epInt="1.0000000000000001e-05"
   epRHS="9.9999999999999995e-07"
   maxIntInfeas="0"
   maxPrimalInfeas="0"
   maxX="1"
   maxSlack="1"/>
 <variables>
  <variable name="Y(1,7)" index="6" value="1"/>
  <variable name="Y(2,26)" index="70" value="1"/>
  <variable name="Y(3,5)" index="94" value="1"/>
  <variable name="Y(5,9)" index="188" value="1"/>
  <variable name="Y(6,17)" index="241" value="1"/>
  <variable name="Y(7,19)" index="288" value="1"/>
  <variable name="Y(8,24)" index="338" value="1"/>
  <variable name="Y(10,3)" index="407" value="1"/>
  <variable name="Y(14,10)" index="594" value="1"/>
  <variable name="Y(15,15)" index="644" value="1"/>
  <variable name="Y(21,4)" index="903" value="1"/>
  <variable name="Y(34,6)" index="1490" value="1"/>
  <variable name="Y(35,8)" index="1537" value="1"/>
  <variable name="Y(38,11)" index="1675" value="1"/>
  <variable name="Y(41,18)" index="1817" value="1"/>
  <variable name="Y(43,20)" index="1909" value="1"/>
  <variable name="Y(45,25)" index="2004" value="1"/>
  <variable name="X(1,2,15)" index="6854" value="1"/>
  <variable name="X(1,4,1)" index="6992" value="1"/>
  <variable name="X(2,1,1)" index="7144" value="1"/>
  <variable name="X(2,14,16)" index="7311" value="1"/>
  <variable name="X(2,26,2)" index="7449" value="1"/>
  <variable name="X(3,7,3)" index="7602" value="1"/>
  <variable name="X(3,20,7)" index="7758" value="1"/>
  <variable name="X(3,31,10)" index="7913" value="1"/>
  <variable name="X(4,1,15)" index="8070" value="1"/>
  <variable name="X(4,7,1)" index="8208" value="1"/>
  <variable name="X(4,32,21)" index="8380" value="1"/>
  <variable name="X(5,6,5)" index="8516" value="1"/>
  <variable name="X(5,8,20)" index="8683" value="1"/>
  <variable name="X(5,33,3)" index="8818" value="1"/>
  <variable name="X(6,5,20)" index="8987" value="1"/>
  <variable name="X(6,9,5)" index="9124" value="1"/>
  <variable name="X(6,34,34)" index="9305" value="1"/>
  <variable name="X(7,3,10)" index="9433" value="1"/>
  <variable name="X(7,4,21)" index="9596" value="1"/>
  <variable name="X(7,8,3)" index="9730" value="1"/>
  <variable name="X(7,35,1)" index="9880" value="1"/>
  <variable name="X(8,5,3)" index="10034" value="1"/>
  <variable name="X(8,7,20)" index="10203" value="1"/>
  <variable name="X(8,36,35)" index="10370" value="1"/>
  <variable name="X(9,6,49)" index="10536" value="1"/>
  <variable name="X(9,10,6)" index="10645" value="1"/>
  <variable name="X(9,37,5)" index="10796" value="1"/>
  <variable name="X(10,9,51)" index="10994" value="1"/>
  <variable name="X(10,17,6)" index="11101" value="1"/>
  <variable name="X(10,38,14)" index="11261" value="1"/>
  <variable name="X(11,12,59)" index="11458" value="1"/>
  <variable name="X(11,18,61)" index="11612" value="1"/>
  <variable name="X(11,39,38)" index="11741" value="1"/>
  <variable name="X(12,11,38)" index="11893" value="1"/>
  <variable name="X(12,13,59)" index="12066" value="1"/>
  <variable name="X(13,12,38)" index="12197" value="1"/>
  <variable name="X(13,14,50)" index="12361" value="1"/>
  <variable name="X(13,16,16)" index="12479" value="1"/>
  <variable name="X(14,2,50)" index="12665" value="1"/>
  <variable name="X(14,13,16)" index="12783" value="1"/>
  <variable name="X(15,26,8)" index="12927" value="1"/>
  <variable name="X(15,27,67)" index="13138" value="1"/>
  <variable name="X(15,43,15)" index="13238" value="1"/>
  <variable name="X(16,13,50)" index="13425" value="1"/>
  <variable name="X(16,17,16)" index="13543" value="1"/>
  <variable name="X(17,10,61)" index="13740" value="1"/>
  <variable name="X(17,16,50)" index="13881" value="1"/>
  <variable name="X(17,18,41)" index="14024" value="1"/>
  <variable name="X(17,45,6)" index="14141" value="1"/>
  <variable name="X(18,11,106)" index="14393" value="1"/>
  <variable name="X(18,17,61)" index="14500" value="1"/>
  <variable name="X(18,46,41)" index="14632" value="1"/>
  <variable name="X(19,23,151)" index="14894" value="1"/>
  <variable name="X(19,28,117)" index="15012" value="1"/>
  <variable name="X(19,47,7)" index="15054" value="1"/>
  <variable name="X(20,3,89)" index="15288" value="1"/>
  <variable name="X(20,27,8)" index="15359" value="1"/>
  <variable name="X(20,28,7)" index="15510" value="1"/>
  <variable name="X(20,48,43)" index="15698" value="1"/>
  <variable name="X(21,22,117)" index="15924" value="1"/>
  <variable name="X(21,24,120)" index="16079" value="1"/>
  <variable name="X(22,21,151)" index="16262" value="1"/>
  <variable name="X(22,23,117)" index="16380" value="1"/>
  <variable name="X(23,19,117)" index="16532" value="1"/>
  <variable name="X(23,22,151)" index="16718" value="1"/>
  <variable name="X(24,21,134)" index="16853" value="1"/>
  <variable name="X(24,25,120)" index="16991" value="1"/>
  <variable name="X(24,52,8)" index="17031" value="1"/>
  <variable name="X(25,24,8)" index="17183" value="1"/>
  <variable name="X(25,26,120)" index="17447" value="1"/>
  <variable name="X(25,53,45)" index="17524" value="1"/>
  <variable name="X(26,2,120)" index="17751" value="1"/>
  <variable name="X(26,15,15)" index="17798" value="1"/>
  <variable name="X(26,25,8)" index="17943" value="1"/>
  <variable name="X(26,54,2)" index="18089" value="1"/>
  <variable name="X(27,15,8)" index="18247" value="1"/>
  <variable name="X(27,20,67)" index="18458" value="1"/>
  <variable name="X(28,19,7)" index="18550" value="1"/>
  <variable name="X(28,20,117)" index="18812" value="1"/>
 </variables>
</CPLEXSolution>
